(declare-fun v13 ()Bool         )
(declare-fun v20 () (_ BitVec 10))
(declare-fun v23 () (_ BitVec 9))
(assert
(let (($e23 (_ bv0 8)))
(let (($e507 (concat $e23 true)))
(let (($e508 (bvand v23 $e507)))
(let (($e509 (concat true  $e508)))
(let (($e510 (bvand $e509 v20)))
              (ite        v13     $e509  $e510)
                                                                                                                                                                                                                                                                                                                                                                                                                                                                                                                                                                                                                                                                                                                                                                                                                                                                                                                                                                                                                                                                                                                                                                                                                                                                                                                                                                                                                                                                                                                                                                                                                                                                                                                                                                                                                                                                                                                                                                                                                                                                                                                                                                                                                                                                                                                                                                                                                                                                                                                                                                                                                                                                                                                                                                                                                                                                                                                                                                                                                                                                                                                                                                                                                                                                                                                                                                                                                                                                                                                                                                                                                                                                                                                                                                                                                                                                          ))))                                                                                                                                                                                                                                                                                                                                                                                                                                                                   )                      )
